18 965
525 7 477 7 390 7 241 9 75 11 914 15
525 7 477 7 390 7 241 9 77 11 1 15 805 19 645 23
525 7 484 7 368 7 123 9 857 11 631 18
535 8 492 8 398 9 279 10 184 14 58 26 897 50
535 8 492 8 398 9 279 10 184 14 58 26 897 50
528 7 485 7 368 7 122 9 951 13
525 7 445 7 263 7 62 9 888 11 719 18
525 7 445 7 357 7 195 9 48 11 872 15 715 22
525 7 482 7 367 7 213 9 32 11 824 18
525 7 482 7 367 7 213 9 32 11 824 18
525 7 479 7 355 7 106 9 927 13
525 7 482 7 358 7 165 12
532 7
532 7
532 7
532 7
532 7
532 7
